(declare-const x String)
(declare-const y String)
(declare-const m String)
(declare-const n String)
(assert (str.in.re x (re.++ (str.to.re "bb") (re.+ (str.to.re "}}")))))
(assert (str.in.re x (re.union (str.to.re "cc") (re.* (str.to.re "cc")))))
(assert (str.in.re x (re.union (re.* (re.* (str.to.re "cc"))) (re.++ (str.to.re "") (str.to.re "LL")))))
(check-sat)
(get-model)
